SumColouring/JavaBacktracker/RandomInstances/38_0.05_1.col
c File: instances/38_0.05_1.col
c
c Description: Random graph of size 38 vertices and P(0.05) of edges between any two vertices.
p col 38 703
e 1 5
e 1 9
e 2 33
e 3 17
e 3 32
e 3 36
e 5 18
e 6 7
e 6 19
e 6 28
e 6 32
e 6 34
e 8 15
e 9 18
e 10 19
e 11 26
e 12 13
e 12 17
e 12 21
e 13 20
e 14 37
e 15 21
e 16 19
e 16 28
e 16 38
e 17 26
e 18 20
e 18 31
e 19 26
e 19 30
e 23 32
e 25 33
e 33 38
e 36 37